NAME RRP
OBJSENSE MAX
ROWS
 N  OBJ
 E  R0      
 E  R1      
 E  R2      
 E  R3      
 E  R4      
 E  R5      
 E  R6      
 E  R7      
 E  R8      
 E  R9      
 L  R10     
 L  R11     
 L  R12     
 L  R13     
 E  R14     
 E  R15     
 E  R16     
 E  R17     
 E  R18     
 L  R19     
 L  R20     
 L  R21     
 L  R22     
 L  R23     
 L  R24     
 L  R25     
 L  R26     
 L  R27     
 L  R28     
 L  R29     
 L  R30     
 G  R31     
 G  R32     
 G  R33     
 G  R34     
 G  R35     
 G  R36     
 G  R37     
 G  R38     
 L  R39     
 L  R40     
 G  R41     
 G  R42     
 L  R43     
 L  R44     
 G  R45     
 G  R46     
 G  R47     
 G  R48     
 L  R49     
 L  R50     
 G  R51     
 L  R52     
 L  R53     
 L  R54     
 L  R55     
 L  R56     
 L  R57     
 G  R58     
 G  R59     
 L  R60     
COLUMNS
    MARKER    'MARKER'                 'INTORG'
    x_kimjn[0,1,0,1,0]  OBJ       0
    x_kimjn[0,1,0,2,0]  R2        -1
    x_kimjn[0,1,0,2,0]  R3        1
    x_kimjn[0,1,0,2,0]  R7        1
    x_kimjn[0,1,0,2,0]  R15       1
    x_kimjn[0,1,0,2,0]  R17       1
    x_kimjn[0,1,0,2,0]  R23       487.5
    x_kimjn[0,1,0,2,0]  R31       -487.5
    x_kimjn[0,1,0,3,0]  R2        -1
    x_kimjn[0,1,0,3,0]  R4        -1
    x_kimjn[0,1,0,3,0]  R17       2
    x_kimjn[0,1,0,3,0]  R24       487.5
    x_kimjn[0,1,0,3,0]  R32       -487.5
    x_kimjn[0,1,0,4,0]  R2        -1
    x_kimjn[0,1,0,4,0]  R5        -1
    x_kimjn[0,1,0,4,0]  R17       1
    x_kimjn[0,1,0,4,0]  R18       1
    x_kimjn[0,1,0,4,0]  R25       487.5
    x_kimjn[0,1,0,4,0]  R33       -487.5
    x_kimjn[0,2,0,1,0]  R2        1
    x_kimjn[0,2,0,1,0]  R3        -1
    x_kimjn[0,2,0,1,0]  R6        1
    x_kimjn[0,2,0,1,0]  R14       1
    x_kimjn[0,2,0,1,0]  R18       1
    x_kimjn[0,2,0,1,0]  R26       487.5
    x_kimjn[0,2,0,1,0]  R34       -487.5
    x_kimjn[0,2,0,2,0]  OBJ       0
    x_kimjn[0,2,0,3,0]  R3        -1
    x_kimjn[0,2,0,3,0]  R4        -1
    x_kimjn[0,2,0,3,0]  R17       1
    x_kimjn[0,2,0,3,0]  R18       1
    x_kimjn[0,2,0,3,0]  R27       487.5
    x_kimjn[0,2,0,3,0]  R35       -487.5
    x_kimjn[0,2,0,4,0]  R3        -1
    x_kimjn[0,2,0,4,0]  R5        -1
    x_kimjn[0,2,0,4,0]  R18       2
    x_kimjn[0,2,0,4,0]  R28       487.5
    x_kimjn[0,2,0,4,0]  R36       -487.5
    x_kimjn[0,3,0,1,0]  OBJ       0
    x_kimjn[0,3,0,2,0]  OBJ       0
    x_kimjn[0,3,0,3,0]  OBJ       0
    x_kimjn[0,3,0,4,0]  R4        1
    x_kimjn[0,3,0,4,0]  R5        -1
    x_kimjn[0,3,0,4,0]  R8        1
    x_kimjn[0,3,0,4,0]  R18       1
    x_kimjn[0,3,0,4,0]  R29       487.5
    x_kimjn[0,3,0,4,0]  R37       -487.5
    x_kimjn[0,4,0,1,0]  OBJ       0
    x_kimjn[0,4,0,2,0]  OBJ       0
    x_kimjn[0,4,0,3,0]  R4        -1
    x_kimjn[0,4,0,3,0]  R5        1
    x_kimjn[0,4,0,3,0]  R9        1
    x_kimjn[0,4,0,3,0]  R17       1
    x_kimjn[0,4,0,3,0]  R30       487.5
    x_kimjn[0,4,0,3,0]  R38       -487.5
    x_kimjn[0,4,0,4,0]  OBJ       0
    xs_kim[0,1,0]  R0        1
    xs_kim[0,1,0]  R2        1
    xs_kim[0,1,0]  R6        1
    xs_kim[0,1,0]  R14       1
    xs_kim[0,1,0]  R39       487.5
    xs_kim[0,1,0]  R41       -487.5
    xs_kim[0,2,0]  R0        1
    xs_kim[0,2,0]  R3        1
    xs_kim[0,2,0]  R7        1
    xs_kim[0,2,0]  R15       1
    xs_kim[0,2,0]  R40       487.5
    xs_kim[0,2,0]  R42       -487.5
    xe_kjn[0,3,0]  R1        1
    xe_kjn[0,3,0]  R4        1
    xe_kjn[0,3,0]  R8        1
    xe_kjn[0,3,0]  R43       487.5
    xe_kjn[0,3,0]  R45       -487.5
    xe_kjn[0,4,0]  R1        1
    xe_kjn[0,4,0]  R5        1
    xe_kjn[0,4,0]  R9        1
    xe_kjn[0,4,0]  R44       487.5
    xe_kjn[0,4,0]  R46       -487.5
    xod_k[0]  R0        1
    xod_k[0]  R1        1
    xod_k[0]  R16       1
    y_kim[0,1,0]  R6        -1
    y_kim[0,1,0]  R10       1
    y_kim[0,1,0]  R56       0.1
    y_kim[0,2,0]  R7        -1
    y_kim[0,2,0]  R11       1
    y_kim[0,2,0]  R57       0.1
    y_kim[0,3,0]  R8        -1
    y_kim[0,3,0]  R12       1
    y_kim[0,3,0]  R58       -0.1
    y_kim[0,4,0]  R9        -1
    y_kim[0,4,0]  R13       1
    y_kim[0,4,0]  R59       -0.1
    z_ki[0,1]  OBJ       1
    z_ki[0,1]  R14       -1
    z_ki[0,1]  R60       1
    z_ki[0,2]  OBJ       1
    z_ki[0,2]  R15       -1
    z_ki[0,2]  R60       1
    MARKER    'MARKER'                 'INTEND'
    t_ki[0,0,0]  R39       1
    t_ki[0,0,0]  R40       1
    t_ki[0,0,0]  R41       1
    t_ki[0,0,0]  R42       1
    t_ki[0,0,0]  R55       -1
    t_ki[0,1,0]  R19       1
    t_ki[0,1,0]  R20       1
    t_ki[0,1,0]  R23       1
    t_ki[0,1,0]  R24       1
    t_ki[0,1,0]  R25       1
    t_ki[0,1,0]  R26       -1
    t_ki[0,1,0]  R31       1
    t_ki[0,1,0]  R32       1
    t_ki[0,1,0]  R33       1
    t_ki[0,1,0]  R34       -1
    t_ki[0,1,0]  R39       -1
    t_ki[0,1,0]  R41       -1
    t_ki[0,1,0]  R53       -1
    t_ki[0,2,0]  R21       1
    t_ki[0,2,0]  R22       1
    t_ki[0,2,0]  R23       -1
    t_ki[0,2,0]  R26       1
    t_ki[0,2,0]  R27       1
    t_ki[0,2,0]  R28       1
    t_ki[0,2,0]  R31       -1
    t_ki[0,2,0]  R34       1
    t_ki[0,2,0]  R35       1
    t_ki[0,2,0]  R36       1
    t_ki[0,2,0]  R40       -1
    t_ki[0,2,0]  R42       -1
    t_ki[0,2,0]  R54       -1
    t_ki[0,3,0]  R19       -1
    t_ki[0,3,0]  R20       -1
    t_ki[0,3,0]  R24       -1
    t_ki[0,3,0]  R27       -1
    t_ki[0,3,0]  R29       1
    t_ki[0,3,0]  R30       -1
    t_ki[0,3,0]  R32       -1
    t_ki[0,3,0]  R35       -1
    t_ki[0,3,0]  R37       1
    t_ki[0,3,0]  R38       -1
    t_ki[0,3,0]  R43       1
    t_ki[0,3,0]  R45       1
    t_ki[0,3,0]  R47       1
    t_ki[0,3,0]  R49       1
    t_ki[0,3,0]  R53       1
    t_ki[0,4,0]  R21       -1
    t_ki[0,4,0]  R22       -1
    t_ki[0,4,0]  R25       -1
    t_ki[0,4,0]  R28       -1
    t_ki[0,4,0]  R29       -1
    t_ki[0,4,0]  R30       1
    t_ki[0,4,0]  R33       -1
    t_ki[0,4,0]  R36       -1
    t_ki[0,4,0]  R37       -1
    t_ki[0,4,0]  R38       1
    t_ki[0,4,0]  R44       1
    t_ki[0,4,0]  R46       1
    t_ki[0,4,0]  R48       1
    t_ki[0,4,0]  R50       1
    t_ki[0,4,0]  R54       1
    t_ki[0,5,0]  R43       -1
    t_ki[0,5,0]  R44       -1
    t_ki[0,5,0]  R45       -1
    t_ki[0,5,0]  R46       -1
    t_ki[0,5,0]  R51       1
    t_ki[0,5,0]  R52       1
    t_ki[0,5,0]  R55       1
RHS
    RHS1      R0        1
    RHS1      R1        1
    RHS1      R10       1
    RHS1      R11       1
    RHS1      R12       1
    RHS1      R13       1
    RHS1      R19       -48
    RHS1      R20       -48
    RHS1      R21       -66
    RHS1      R22       -66
    RHS1      R23       464.5
    RHS1      R24       439.5
    RHS1      R25       439.5
    RHS1      R26       463.5
    RHS1      R27       421.5
    RHS1      R28       421.5
    RHS1      R29       487.4
    RHS1      R30       487.4
    RHS1      R31       -510.5
    RHS1      R32       -535.5
    RHS1      R33       -535.5
    RHS1      R34       -511.5
    RHS1      R35       -553.5
    RHS1      R36       -553.5
    RHS1      R37       -487.6
    RHS1      R38       -487.6
    RHS1      R39       463.5
    RHS1      R40       487.4
    RHS1      R41       -511.5
    RHS1      R42       -487.6
    RHS1      R43       487.4
    RHS1      R44       487.4
    RHS1      R45       -487.6
    RHS1      R46       -487.6
    RHS1      R47       119.9
    RHS1      R48       119.9
    RHS1      R49       149.9
    RHS1      R50       149.9
    RHS1      R51       120
    RHS1      R52       150
    RHS1      R53       1.1906666666666666e+02
    RHS1      R54       1.6466666666666666e+02
    RHS1      R55       195
    RHS1      R60       4
BOUNDS
 BV BND1      x_kimjn[0,1,0,1,0]
 BV BND1      x_kimjn[0,1,0,2,0]
 BV BND1      x_kimjn[0,1,0,3,0]
 BV BND1      x_kimjn[0,1,0,4,0]
 BV BND1      x_kimjn[0,2,0,1,0]
 BV BND1      x_kimjn[0,2,0,2,0]
 BV BND1      x_kimjn[0,2,0,3,0]
 BV BND1      x_kimjn[0,2,0,4,0]
 BV BND1      x_kimjn[0,3,0,1,0]
 BV BND1      x_kimjn[0,3,0,2,0]
 BV BND1      x_kimjn[0,3,0,3,0]
 BV BND1      x_kimjn[0,3,0,4,0]
 BV BND1      x_kimjn[0,4,0,1,0]
 BV BND1      x_kimjn[0,4,0,2,0]
 BV BND1      x_kimjn[0,4,0,3,0]
 BV BND1      x_kimjn[0,4,0,4,0]
 BV BND1      xs_kim[0,1,0]
 BV BND1      xs_kim[0,2,0]
 BV BND1      xe_kjn[0,3,0]
 BV BND1      xe_kjn[0,4,0]
 BV BND1      xod_k[0]
 BV BND1      y_kim[0,1,0]
 BV BND1      y_kim[0,2,0]
 BV BND1      y_kim[0,3,0]
 BV BND1      y_kim[0,4,0]
 BV BND1      z_ki[0,1]
 BV BND1      z_ki[0,2]
ENDATA
